\ Model Sudoku Problem
\ LP format - for model browsing. Use MPS format to capture full model detail.
Minimize
 
Subject To
 R0: x_1_1 + x_1_2 + x_1_3 + x_1_4 + x_1_5 + x_1_6 + x_1_7 + x_1_8 + x_1_9
   + x_1_10 + x_1_11 + x_1_12 + x_1_13 + x_1_14 + x_1_15 + x_1_16 = 65519
 R1: x_2_1 + x_2_2 + x_2_3 + x_2_4 + x_2_5 + x_2_6 + x_2_7 + x_2_8 + x_2_9
   + x_2_10 + x_2_11 + x_2_12 + x_2_13 + x_2_14 + x_2_15 + x_2_16 = 65519
 R2: x_3_1 + x_3_2 + x_3_3 + x_3_4 + x_3_5 + x_3_6 + x_3_7 + x_3_8 + x_3_9
   + x_3_10 + x_3_11 + x_3_12 + x_3_13 + x_3_14 + x_3_15 + x_3_16 = 65519
 R3: x_4_1 + x_4_2 + x_4_3 + x_4_4 + x_4_5 + x_4_6 + x_4_7 + x_4_8 + x_4_9
   + x_4_10 + x_4_11 + x_4_12 + x_4_13 + x_4_14 + x_4_15 + x_4_16 = 65519
 R4: x_5_1 + x_5_2 + x_5_3 + x_5_4 + x_5_5 + x_5_6 + x_5_7 + x_5_8 + x_5_9
   + x_5_10 + x_5_11 + x_5_12 + x_5_13 + x_5_14 + x_5_15 + x_5_16 = 65519
 R5: x_6_1 + x_6_2 + x_6_3 + x_6_4 + x_6_5 + x_6_6 + x_6_7 + x_6_8 + x_6_9
   + x_6_10 + x_6_11 + x_6_12 + x_6_13 + x_6_14 + x_6_15 + x_6_16 = 65519
 R6: x_7_1 + x_7_2 + x_7_3 + x_7_4 + x_7_5 + x_7_6 + x_7_7 + x_7_8 + x_7_9
   + x_7_10 + x_7_11 + x_7_12 + x_7_13 + x_7_14 + x_7_15 + x_7_16 = 65519
 R7: x_8_1 + x_8_2 + x_8_3 + x_8_4 + x_8_5 + x_8_6 + x_8_7 + x_8_8 + x_8_9
   + x_8_10 + x_8_11 + x_8_12 + x_8_13 + x_8_14 + x_8_15 + x_8_16 = 65519
 R8: x_9_1 + x_9_2 + x_9_3 + x_9_4 + x_9_5 + x_9_6 + x_9_7 + x_9_8 + x_9_9
   + x_9_10 + x_9_11 + x_9_12 + x_9_13 + x_9_14 + x_9_15 + x_9_16 = 65519
 R9: x_10_1 + x_10_2 + x_10_3 + x_10_4 + x_10_5 + x_10_6 + x_10_7 + x_10_8
   + x_10_9 + x_10_10 + x_10_11 + x_10_12 + x_10_13 + x_10_14 + x_10_15
   + x_10_16 = 65519
 R10: x_11_1 + x_11_2 + x_11_3 + x_11_4 + x_11_5 + x_11_6 + x_11_7 + x_11_8
   + x_11_9 + x_11_10 + x_11_11 + x_11_12 + x_11_13 + x_11_14 + x_11_15
   + x_11_16 = 65519
 R11: x_12_1 + x_12_2 + x_12_3 + x_12_4 + x_12_5 + x_12_6 + x_12_7 + x_12_8
   + x_12_9 + x_12_10 + x_12_11 + x_12_12 + x_12_13 + x_12_14 + x_12_15
   + x_12_16 = 65519
 R12: x_13_1 + x_13_2 + x_13_3 + x_13_4 + x_13_5 + x_13_6 + x_13_7 + x_13_8
   + x_13_9 + x_13_10 + x_13_11 + x_13_12 + x_13_13 + x_13_14 + x_13_15
   + x_13_16 = 65519
 R13: x_14_1 + x_14_2 + x_14_3 + x_14_4 + x_14_5 + x_14_6 + x_14_7 + x_14_8
   + x_14_9 + x_14_10 + x_14_11 + x_14_12 + x_14_13 + x_14_14 + x_14_15
   + x_14_16 = 65519
 R14: x_15_1 + x_15_2 + x_15_3 + x_15_4 + x_15_5 + x_15_6 + x_15_7 + x_15_8
   + x_15_9 + x_15_10 + x_15_11 + x_15_12 + x_15_13 + x_15_14 + x_15_15
   + x_15_16 = 65519
 R15: x_16_1 + x_16_2 + x_16_3 + x_16_4 + x_16_5 + x_16_6 + x_16_7 + x_16_8
   + x_16_9 + x_16_10 + x_16_11 + x_16_12 + x_16_13 + x_16_14 + x_16_15
   + x_16_16 = 65519
 R16: x_1_1 + x_2_1 + x_3_1 + x_4_1 + x_5_1 + x_6_1 + x_7_1 + x_8_1 + x_9_1
   + x_10_1 + x_11_1 + x_12_1 + x_13_1 + x_14_1 + x_15_1 + x_16_1 = 65519
 R17: x_1_2 + x_2_2 + x_3_2 + x_4_2 + x_5_2 + x_6_2 + x_7_2 + x_8_2 + x_9_2
   + x_10_2 + x_11_2 + x_12_2 + x_13_2 + x_14_2 + x_15_2 + x_16_2 = 65519
 R18: x_1_3 + x_2_3 + x_3_3 + x_4_3 + x_5_3 + x_6_3 + x_7_3 + x_8_3 + x_9_3
   + x_10_3 + x_11_3 + x_12_3 + x_13_3 + x_14_3 + x_15_3 + x_16_3 = 65519
 R19: x_1_4 + x_2_4 + x_3_4 + x_4_4 + x_5_4 + x_6_4 + x_7_4 + x_8_4 + x_9_4
   + x_10_4 + x_11_4 + x_12_4 + x_13_4 + x_14_4 + x_15_4 + x_16_4 = 65519
 R20: x_1_5 + x_2_5 + x_3_5 + x_4_5 + x_5_5 + x_6_5 + x_7_5 + x_8_5 + x_9_5
   + x_10_5 + x_11_5 + x_12_5 + x_13_5 + x_14_5 + x_15_5 + x_16_5 = 65519
 R21: x_1_6 + x_2_6 + x_3_6 + x_4_6 + x_5_6 + x_6_6 + x_7_6 + x_8_6 + x_9_6
   + x_10_6 + x_11_6 + x_12_6 + x_13_6 + x_14_6 + x_15_6 + x_16_6 = 65519
 R22: x_1_7 + x_2_7 + x_3_7 + x_4_7 + x_5_7 + x_6_7 + x_7_7 + x_8_7 + x_9_7
   + x_10_7 + x_11_7 + x_12_7 + x_13_7 + x_14_7 + x_15_7 + x_16_7 = 65519
 R23: x_1_8 + x_2_8 + x_3_8 + x_4_8 + x_5_8 + x_6_8 + x_7_8 + x_8_8 + x_9_8
   + x_10_8 + x_11_8 + x_12_8 + x_13_8 + x_14_8 + x_15_8 + x_16_8 = 65519
 R24: x_1_9 + x_2_9 + x_3_9 + x_4_9 + x_5_9 + x_6_9 + x_7_9 + x_8_9 + x_9_9
   + x_10_9 + x_11_9 + x_12_9 + x_13_9 + x_14_9 + x_15_9 + x_16_9 = 65519
 R25: x_1_10 + x_2_10 + x_3_10 + x_4_10 + x_5_10 + x_6_10 + x_7_10 + x_8_10
   + x_9_10 + x_10_10 + x_11_10 + x_12_10 + x_13_10 + x_14_10 + x_15_10
   + x_16_10 = 65519
 R26: x_1_11 + x_2_11 + x_3_11 + x_4_11 + x_5_11 + x_6_11 + x_7_11 + x_8_11
   + x_9_11 + x_10_11 + x_11_11 + x_12_11 + x_13_11 + x_14_11 + x_15_11
   + x_16_11 = 65519
 R27: x_1_12 + x_2_12 + x_3_12 + x_4_12 + x_5_12 + x_6_12 + x_7_12 + x_8_12
   + x_9_12 + x_10_12 + x_11_12 + x_12_12 + x_13_12 + x_14_12 + x_15_12
   + x_16_12 = 65519
 R28: x_1_13 + x_2_13 + x_3_13 + x_4_13 + x_5_13 + x_6_13 + x_7_13 + x_8_13
   + x_9_13 + x_10_13 + x_11_13 + x_12_13 + x_13_13 + x_14_13 + x_15_13
   + x_16_13 = 65519
 R29: x_1_14 + x_2_14 + x_3_14 + x_4_14 + x_5_14 + x_6_14 + x_7_14 + x_8_14
   + x_9_14 + x_10_14 + x_11_14 + x_12_14 + x_13_14 + x_14_14 + x_15_14
   + x_16_14 = 65519
 R30: x_1_15 + x_2_15 + x_3_15 + x_4_15 + x_5_15 + x_6_15 + x_7_15 + x_8_15
   + x_9_15 + x_10_15 + x_11_15 + x_12_15 + x_13_15 + x_14_15 + x_15_15
   + x_16_15 = 65519
 R31: x_1_16 + x_2_16 + x_3_16 + x_4_16 + x_5_16 + x_6_16 + x_7_16 + x_8_16
   + x_9_16 + x_10_16 + x_11_16 + x_12_16 + x_13_16 + x_14_16 + x_15_16
   + x_16_16 = 65519
 R32: x_1_1 + x_1_2 + x_1_3 + x_1_4 + x_2_1 + x_2_2 + x_2_3 + x_2_4 + x_3_1
   + x_3_2 + x_3_3 + x_3_4 + x_4_1 + x_4_2 + x_4_3 + x_4_4 = 65519
 R33: x_1_5 + x_1_6 + x_1_7 + x_1_8 + x_2_5 + x_2_6 + x_2_7 + x_2_8 + x_3_5
   + x_3_6 + x_3_7 + x_3_8 + x_4_5 + x_4_6 + x_4_7 + x_4_8 = 65519
 R34: x_1_9 + x_1_10 + x_1_11 + x_1_12 + x_2_9 + x_2_10 + x_2_11 + x_2_12
   + x_3_9 + x_3_10 + x_3_11 + x_3_12 + x_4_9 + x_4_10 + x_4_11 + x_4_12
   = 65519
 R35: x_1_13 + x_1_14 + x_1_15 + x_1_16 + x_2_13 + x_2_14 + x_2_15 + x_2_16
   + x_3_13 + x_3_14 + x_3_15 + x_3_16 + x_4_13 + x_4_14 + x_4_15 + x_4_16
   = 65519
 R36: x_5_1 + x_5_2 + x_5_3 + x_5_4 + x_6_1 + x_6_2 + x_6_3 + x_6_4 + x_7_1
   + x_7_2 + x_7_3 + x_7_4 + x_8_1 + x_8_2 + x_8_3 + x_8_4 = 65519
 R37: x_5_5 + x_5_6 + x_5_7 + x_5_8 + x_6_5 + x_6_6 + x_6_7 + x_6_8 + x_7_5
   + x_7_6 + x_7_7 + x_7_8 + x_8_5 + x_8_6 + x_8_7 + x_8_8 = 65519
 R38: x_5_9 + x_5_10 + x_5_11 + x_5_12 + x_6_9 + x_6_10 + x_6_11 + x_6_12
   + x_7_9 + x_7_10 + x_7_11 + x_7_12 + x_8_9 + x_8_10 + x_8_11 + x_8_12
   = 65519
 R39: x_5_13 + x_5_14 + x_5_15 + x_5_16 + x_6_13 + x_6_14 + x_6_15 + x_6_16
   + x_7_13 + x_7_14 + x_7_15 + x_7_16 + x_8_13 + x_8_14 + x_8_15 + x_8_16
   = 65519
 R40: x_9_1 + x_9_2 + x_9_3 + x_9_4 + x_10_1 + x_10_2 + x_10_3 + x_10_4
   + x_11_1 + x_11_2 + x_11_3 + x_11_4 + x_12_1 + x_12_2 + x_12_3 + x_12_4
   = 65519
 R41: x_9_5 + x_9_6 + x_9_7 + x_9_8 + x_10_5 + x_10_6 + x_10_7 + x_10_8
   + x_11_5 + x_11_6 + x_11_7 + x_11_8 + x_12_5 + x_12_6 + x_12_7 + x_12_8
   = 65519
 R42: x_9_9 + x_9_10 + x_9_11 + x_9_12 + x_10_9 + x_10_10 + x_10_11
   + x_10_12 + x_11_9 + x_11_10 + x_11_11 + x_11_12 + x_12_9 + x_12_10
   + x_12_11 + x_12_12 = 65519
 R43: x_9_13 + x_9_14 + x_9_15 + x_9_16 + x_10_13 + x_10_14 + x_10_15
   + x_10_16 + x_11_13 + x_11_14 + x_11_15 + x_11_16 + x_12_13 + x_12_14
   + x_12_15 + x_12_16 = 65519
 R44: x_13_1 + x_13_2 + x_13_3 + x_13_4 + x_14_1 + x_14_2 + x_14_3 + x_14_4
   + x_15_1 + x_15_2 + x_15_3 + x_15_4 + x_16_1 + x_16_2 + x_16_3 + x_16_4
   = 65519
 R45: x_13_5 + x_13_6 + x_13_7 + x_13_8 + x_14_5 + x_14_6 + x_14_7 + x_14_8
   + x_15_5 + x_15_6 + x_15_7 + x_15_8 + x_16_5 + x_16_6 + x_16_7 + x_16_8
   = 65519
 R46: x_13_9 + x_13_10 + x_13_11 + x_13_12 + x_14_9 + x_14_10 + x_14_11
   + x_14_12 + x_15_9 + x_15_10 + x_15_11 + x_15_12 + x_16_9 + x_16_10
   + x_16_11 + x_16_12 = 65519
 R47: x_13_13 + x_13_14 + x_13_15 + x_13_16 + x_14_13 + x_14_14 + x_14_15
   + x_14_16 + x_15_13 + x_15_14 + x_15_15 + x_15_16 + x_16_13 + x_16_14
   + x_16_15 + x_16_16 = 65519
 R48: x_1_5 = 2047
 R49: x_1_11 = 31
 R50: x_2_2 = 1023
 R51: x_2_8 = 4095
 R52: x_4_8 = 15
 R53: x_4_15 = 8191
 R54: x_6_3 = 255
 R55: x_6_12 = 1
 R56: x_7_5 = 3
 R57: x_7_7 = 0
 R58: x_7_10 = 32767
 R59: x_8_1 = 3
 R60: x_8_7 = 15
 R61: x_8_16 = 8191
 R62: x_9_3 = 32767
 R63: x_9_10 = 15
 R64: x_9_11 = 127
 R65: x_10_16 = 63
 R66: x_12_2 = 0
 R67: x_12_5 = 31
 R68: x_12_8 = 63
 R69: x_12_10 = 255
 R70: x_12_16 = 16383
 R71: x_13_9 = 15
 R72: x_13_10 = 31
 R73: x_14_11 = 3
 R74: x_14_15 = 63
 R75: x_14_16 = 127
 R76: x_16_1 = 0
 R77: x_16_6 = 31
 R78: x_16_8 = 127
 R79: x_16_11 = 1023
 R80: x_16_13 = 4095
 R81: x_16_14 = 8191
 R82: x_16_15 = 16383
Bounds
Generals
 x_1_1 x_1_2 x_1_3 x_1_4 x_1_5 x_1_6 x_1_7 x_1_8 x_1_9 x_1_10 x_1_11 x_1_12
 x_1_13 x_1_14 x_1_15 x_1_16 x_2_1 x_2_2 x_2_3 x_2_4 x_2_5 x_2_6 x_2_7
 x_2_8 x_2_9 x_2_10 x_2_11 x_2_12 x_2_13 x_2_14 x_2_15 x_2_16 x_3_1 x_3_2
 x_3_3 x_3_4 x_3_5 x_3_6 x_3_7 x_3_8 x_3_9 x_3_10 x_3_11 x_3_12 x_3_13
 x_3_14 x_3_15 x_3_16 x_4_1 x_4_2 x_4_3 x_4_4 x_4_5 x_4_6 x_4_7 x_4_8 x_4_9
 x_4_10 x_4_11 x_4_12 x_4_13 x_4_14 x_4_15 x_4_16 x_5_1 x_5_2 x_5_3 x_5_4
 x_5_5 x_5_6 x_5_7 x_5_8 x_5_9 x_5_10 x_5_11 x_5_12 x_5_13 x_5_14 x_5_15
 x_5_16 x_6_1 x_6_2 x_6_3 x_6_4 x_6_5 x_6_6 x_6_7 x_6_8 x_6_9 x_6_10 x_6_11
 x_6_12 x_6_13 x_6_14 x_6_15 x_6_16 x_7_1 x_7_2 x_7_3 x_7_4 x_7_5 x_7_6
 x_7_7 x_7_8 x_7_9 x_7_10 x_7_11 x_7_12 x_7_13 x_7_14 x_7_15 x_7_16 x_8_1
 x_8_2 x_8_3 x_8_4 x_8_5 x_8_6 x_8_7 x_8_8 x_8_9 x_8_10 x_8_11 x_8_12
 x_8_13 x_8_14 x_8_15 x_8_16 x_9_1 x_9_2 x_9_3 x_9_4 x_9_5 x_9_6 x_9_7
 x_9_8 x_9_9 x_9_10 x_9_11 x_9_12 x_9_13 x_9_14 x_9_15 x_9_16 x_10_1 x_10_2
 x_10_3 x_10_4 x_10_5 x_10_6 x_10_7 x_10_8 x_10_9 x_10_10 x_10_11 x_10_12
 x_10_13 x_10_14 x_10_15 x_10_16 x_11_1 x_11_2 x_11_3 x_11_4 x_11_5 x_11_6
 x_11_7 x_11_8 x_11_9 x_11_10 x_11_11 x_11_12 x_11_13 x_11_14 x_11_15
 x_11_16 x_12_1 x_12_2 x_12_3 x_12_4 x_12_5 x_12_6 x_12_7 x_12_8 x_12_9
 x_12_10 x_12_11 x_12_12 x_12_13 x_12_14 x_12_15 x_12_16 x_13_1 x_13_2
 x_13_3 x_13_4 x_13_5 x_13_6 x_13_7 x_13_8 x_13_9 x_13_10 x_13_11 x_13_12
 x_13_13 x_13_14 x_13_15 x_13_16 x_14_1 x_14_2 x_14_3 x_14_4 x_14_5 x_14_6
 x_14_7 x_14_8 x_14_9 x_14_10 x_14_11 x_14_12 x_14_13 x_14_14 x_14_15
 x_14_16 x_15_1 x_15_2 x_15_3 x_15_4 x_15_5 x_15_6 x_15_7 x_15_8 x_15_9
 x_15_10 x_15_11 x_15_12 x_15_13 x_15_14 x_15_15 x_15_16 x_16_1 x_16_2
 x_16_3 x_16_4 x_16_5 x_16_6 x_16_7 x_16_8 x_16_9 x_16_10 x_16_11 x_16_12
 x_16_13 x_16_14 x_16_15 x_16_16
End
